Traveling Salesman Problem/TSP_generados/Aleatorio1621104278_19.tsp
NAME: Aleatorio1621104278_19.tsp
COMMENT: Randomly generated scenario
TYPE: TSP
DIMENSION: 19
EDGE_WEIGHT_TYPE: ATT
NODE_COORD_SECTION
1 33.18 34.12
2 36.16 45.45
3 9.88 16.46
4 42.35 30.41
5 20.9 28.47
6 0.21 23.21
7 25.89 6.11
8 3.97 23.58
9 14.48 24.74
10 3.34 32.09
11 15.63 19.02
12 44.24 7.19
13 0.0 12.57
14 38.13 2.76
15 31.24 14.31
16 28.67 12.91
17 44.16 21.13
18 24.43 6.64
19 38.71 31.66
