Traveling Salesman Problem/TSP_generados/Aleatorio1621104278_19.opt.tour
NAME: Aleatorio1621104278_19.opt.tour
COMMENT: Optimal solution for Aleatorio1621104278_19 (175.14835642708567)
TYPE: TOUR
DIMENSION: 19
TOUR_SECTION
1 5 9 10 8 6 13 3 11 18 7 16 15 14 12 17 4 19 2
-1
EOF
